48 84 58 118 77 152 155 100 167 27 144 47 185 137 29 9 111 24 162 132 15 23 88 105 70 7 182 177 31 10 16 134 76 56 37 150 43 12 164 101 154 119 19 157 141 42 28 83 184 22 168 2 143 130 71 14 169 174 44 173 45 13 108 79 191 121 53 65 106 46 87 17 97 194 135 64 95 86 117 0 38 114 178 11 142 159 171 110 51 138 49 39 161 103 4 59 192 145 116 6 126 140 62 120 41 172 153 109 189 149 98 99 163 199 55 127 82 72 74 195 61 54 89 125 5 80 107 75 78 165 139 188 20 113 73 68 131 96 123 166 35 147 190 181 34 1 179 50 81 8 124 186 66 158 112 67 146 52 151 69 148 60 21 197 176 85 102 187 128 92 18 33 36 3 196 57 26 170 156 160 136 129 94 133 32 93 30 63 104 115 91 175 90 40 25 193 122 198 183 180 

